3162
3144
3140
3175
3174
3167
3179
3168
3173
3162
3069
3174
3129
3109
3107
3108
3170
3110
3141
3168
3149
3176
3180
3156
3171
3177
3167
3078
3144
3194
3150
3161
3133
3120
3149
3130
3113
3128
3118
3141
3122
3128
3153
3143
3201
3190
3159
3127
3175
3165
3158
3157
3128
3182
3152
3163
3161
3135
3137
3181
3115
3192
3155
3118
3184
3118
3125
3104
3192
3139
3130
3170
3130
3145
3210
3170
3162
3132
3113
3174
3150
3152
3137
3158
3074
3072
3115
3132
3166
3186
3175
3142
3146
3139
3158
3184
3143
3097
3110
3146
